NAME : S-U-8-14.1833.tour
COMMENT : Length = 1833
COMMENT : Found by LKH [Keld Helsgaun] Thu May 17 23:18:24 2018
TYPE : TOUR
DIMENSION : 31
TOUR_SECTION
1
22
21
30
28
12
3
4
8
2
16
13
23
6
14
11
9
7
15
10
5
26
20
25
29
18
27
24
17
31
19
-1
EOF
